p tw 40 84
0 1
0 16
0 34
1 6
1 27
1 29
1 25
1 13
1 16
2 3
2 14
2 20
2 23
2 6
3 22
3 25
3 26
3 12
3 36
3 6
3 39
3 34
4 5
4 26
4 29
4 22
4 9
5 13
5 10
5 7
5 6
5 26
5 30
5 35
5 14
5 15
6 32
6 15
7 8
7 21
7 14
7 28
8 26
8 33
8 37
9 10
9 13
9 17
9 30
10 20
10 36
10 28
11 12
11 21
11 24
11 34
11 35
12 29
12 18
13 19
13 24
13 29
13 23
14 28
14 34
15 16
15 31
15 20
15 17
17 18
17 25
18 20
19 37
19 26
20 29
22 27
24 37
25 38
26 29
27 34
27 36
28 34
32 37
35 36
